V_100_5.txt

VEHICLE     CAPACITY  LOCATIONS  CUSTOMER  OPTIONS  PRIORITIES  NUMTYPS
10		150		97		100		152		3		4

CUSTOMER  DEMAND
0	 19
1	 10
2	 14
3	 12
4	 16
5	 18
6	 18
7	 19
8	 12
9	 17
10	 12
11	 18
12	 17
13	 10
14	 13
15	 16
16	 12
17	 13
18	 11
19	 13
20	 11
21	 12
22	 13
23	 17
24	 12
25	 12
26	 16
27	 13
28	 18
29	 12
30	 10
31	 16
32	 11
33	 10
34	 16
35	 15
36	 12
37	 13
38	 19
39	 18
40	 15
41	 15
42	 11
43	 19
44	 11
45	 20
46	 17
47	 15
48	 13
49	 13
50	 14
51	 16
52	 11
53	 14
54	 13
55	 13
56	 20
57	 14
58	 17
59	 11
60	 16
61	 14
62	 10
63	 14
64	 12
65	 18
66	 16
67	 19
68	 19
69	 14
70	 19
71	 18
72	 10
73	 18
74	 19
75	 16
76	 10
77	 19
78	 14
79	 20
80	 12
81	 12
82	 17
83	 17
84	 16
85	 16
86	 16
87	 17
88	 19
89	 18
90	 19
91	 13
92	 15
93	 15
94	 19
95	 17
96	 14
97	 13
98	 20
99	 16

LOCATION  XCOORD  YCOORD  CAP  READY  DUE  TYP  SERVICETIME
0		39		44		-1		0		720	 0		0
1		4		20		-1		41		101		 2		6
2		12		47		-1		332		392		 2		6
3		39		35		-1		510		570		 2		6
4		14		27		-1		612		672		 2		6
5		10		16		-1		645		705		 2		6
6		26		29		-1		341		401		 2		6
7		20		14		-1		621		681		 2		6
8		14		27		-1		97		157		 2		6
9		34		33		-1		534		594		 2		6
10		35		32		-1		408		468		 2		6
11		7		38		-1		135		195		 2		6
12		50		34		-1		498		558		 2		6
13		24		15		-1		418		478		 2		6
14		3		6		-1		246		306		 2		6
15		18		32		-1		272		332		 2		6
16		11		48		-1		514		574		 2		6
17		3		39		-1		366		426		 2		6
18		12		49		-1		206		266		 2		6
19		33		17		-1		165		225		 2		6
20		2		28		-1		145		205		 2		6
21		1		25		-1		71		131		 2		6
22		36		9		-1		147		207		 2		6
23		29		29		-1		610		670		 2		6
24		39		29		-1		530		590		 2		6
25		23		31		-1		496		556		 2		6
26		35		15		-1		185		245		 2		6
27		23		18		-1		302		362		 2		6
28		39		7		-1		315		375		 2		6
29		30		33		-1		459		519		 2		6
30		23		42		-1		337		397		 2		6
31		9		45		-1		267		327		 2		6
32		43		25		-1		224		284		 2		6
33		46		38		-1		590		650		 2		6
34		35		47		-1		480		540		 2		6
35		16		36		-1		248		308		 2		6
36		39		5		-1		361		421		 2		6
37		35		1		-1		435		495		 2		6
38		38		11		-1		67		127		 2		6
39		1		6		-1		97		157		 2		6
40		11		11		-1		573		633		 2		6
41		15		41		-1		461		521		 2		6
42		12		43		-1		564		624		 2		6
43		25		37		-1		191		251		 2		6
44		49		31		-1		507		567		 2		6
45		28		23		-1		474		534		 2		6
46		34		29		-1		80		140		 2		6
47		23		24		-1		369		429		 2		6
48		24		12		-1		635		695		 2		6
49		11		19		-1		163		223		 2		6
50		7		1		-1		436		496		 2		6
51		42		9		-1		345		405		 2		6
52		46		5		-1		135		195		 2		6
53		9		43		-1		660		720		 2		6
54		34		10		-1		41		101		 2		6
55		4		12		-1		325		385		 2		6
56		10		26		-1		184		244		 2		6
57		43		32		-1		602		662		 2		6
58		49		11		-1		392		452		 2		6
59		2		6		-1		225		285		 2		6
60		39		8		-1		457		517		 2		6
61		35		32		-1		496		556		 2		6
62		30		40		-1		398		458		 2		6
63		34		17		-1		651		711		 2		6
64		27		8		-1		233		293		 2		6
65		12		41		-1		383		443		 2		6
66		29		13		-1		449		509		 2		6
67		47		5		-1		65		125		 2		6
68		22		50		-1		233		293		 2		6
69		49		10		-1		298		358		 2		6
70		46		7		-1		344		404		 2		6
71		25		42		-1		580		640		 2		6
72		24		26		-1		578		638		 2		6
73		40		14		-1		450		510		 2		6
74		45		48		-1		569		629		 2		6
75		17		39		-1		397		457		 2		6
76		24		50		-1		596		656		 2		6
77		30		39		4		334		574		 1		4
78		31		31		5		90		330		 1		4
79		35		15		5		33		273		 1		4
80		37		21		3		317		557		 1		4
81		28		17		4		0		240		 1		4
82		14		8		4		282		522		 1		4
83		7		8		4		186		426		 1		4
84		37		18		3		64		304		 1		4
85		23		11		3		407		647		 1		4
86		34		8		5		85		325		 1		4
87		41		13		4		417		657		 1		4
88		6		28		4		148		388		 1		4
89		37		14		5		186		426		 1		4
90		33		31		4		367		607		 1		4
91		21		26		4		263		503		 1		4
92		43		9		5		322		562		 1		4
93		20		40		4		24		264		 1		4
94		19		8		5		374		614		 1		4
95		25		36		3		29		269		 1		4
96		21		43		4		279		519		 1		4
OPTION  LOCATION  CUSTOMER  PRIO  SERVICETIME   COST
0		90		0		0		2		0
1		94		1		0		2		0
2		79		2		0		2		0
3		83		3		0		2		0
4		84		4		0		2		0
5		77		5		0		2		0
6		85		6		0		2		0
7		86		7		0		2		0
8		92		8		0		2		0
9		96		9		0		2		0
10		80		10		0		2		0
11		82		11		0		2		0
12		91		12		0		2		0
13		78		13		0		2		0
14		77		14		0		2		0
15		95		15		0		2		0
16		91		16		0		2		0
17		79		17		0		2		0
18		82		18		0		2		0
19		91		19		0		2		0
20		80		20		0		2		0
21		84		21		0		2		0
22		77		22		0		2		0
23		82		23		0		2		0
24		1		24		0		5		0
25		2		25		0		5		0
26		3		26		0		5		0
27		4		27		0		5		0
28		5		28		0		5		0
29		6		29		0		5		0
30		7		30		0		5		0
31		8		31		0		5		0
32		9		32		0		5		0
33		10		33		0		5		0
34		11		34		0		5		0
35		12		35		0		5		0
36		13		36		0		5		0
37		14		37		0		5		0
38		15		38		0		5		0
39		16		39		0		5		0
40		17		40		0		5		0
41		18		41		0		5		0
42		19		42		0		5		0
43		20		43		0		5		0
44		21		44		0		5		0
45		22		45		0		5		0
46		23		46		0		5		0
47		24		47		0		5		0
48		25		48		1		5		0
49		93		48		0		2		0
50		26		49		0		5		0
51		91		49		1		2		0
52		27		50		0		5		0
53		94		50		1		2		0
54		28		51		1		5		0
55		88		51		0		2		0
56		29		52		0		5		0
57		95		52		1		2		0
58		30		53		1		5		0
59		95		53		0		2		0
60		31		54		1		5		0
61		87		54		0		2		0
62		32		55		0		5		0
63		89		55		1		2		0
64		33		56		0		5		0
65		88		56		1		2		0
66		34		57		1		5		0
67		78		57		0		2		0
68		35		58		0		5		0
69		96		58		1		2		0
70		36		59		1		5		0
71		89		59		0		2		0
72		37		60		0		5		0
73		79		60		1		2		0
74		38		61		1		5		0
75		87		61		0		2		0
76		39		62		0		5		0
77		81		62		1		2		0
78		40		63		0		5		0
79		80		63		1		2		0
80		41		64		1		5		0
81		96		64		0		2		0
82		42		65		1		5		0
83		84		65		0		2		0
84		43		66		0		5		0
85		85		66		1		2		0
86		44		67		0		5		0
87		87		67		1		2		0
88		45		68		1		5		0
89		82		68		0		2		0
90		46		69		0		5		0
91		80		69		1		2		0
92		47		70		0		5		0
93		90		70		1		2		0
94		48		71		1		5		0
95		80		71		0		2		0
96		49		72		1		5		0
97		91		72		0		2		0
98		50		73		1		5		0
99		82		73		0		2		0
100		51		74		0		5		0
101		79		74		1		2		0
102		52		75		0		5		0
103		86		75		1		2		0
104		53		76		0		5		0
105		85		76		1		2		0
106		54		77		1		5		0
107		89		77		0		2		0
108		55		78		1		5		0
109		85		78		0		2		0
110		56		79		1		5		0
111		84		79		0		2		0
112		57		80		0		5		0
113		80		80		1		2		0
114		58		81		0		5		0
115		77		81		1		2		0
116		59		82		1		5		0
117		94		82		0		2		0
118		60		83		0		5		0
119		86		83		1		2		0
120		61		84		1		5		0
121		78		84		0		2		0
122		62		85		0		5		0
123		78		85		1		2		0
124		63		86		0		5		0
125		89		86		1		2		0
126		64		87		0		5		0
127		79		87		1		2		0
128		65		88		1		5		0
129		79		88		0		2		0
130		66		89		1		5		0
131		79		89		0		2		0
132		67		90		1		5		0
133		81		90		0		2		0
134		68		91		0		5		0
135		93		91		1		2		0
136		69		92		1		5		0
137		87		92		0		2		0
138		70		93		0		5		0
139		86		93		1		2		0
140		71		94		0		5		0
141		81		94		1		2		0
142		72		95		1		5		0
143		94		95		0		2		0
144		73		96		0		5		0
145		84		96		1		2		0
146		74		97		0		5		0
147		96		97		1		2		0
148		75		98		1		5		0
149		88		98		0		2		0
150		76		99		0		5		0
151		78		99		1		2		0
